
Gurobi 10.0.1 (mac64[arm]) logging started Mon Apr  8 03:46:35 2024

Set parameter LogFile to value "/Users/deniserings/Documents/zib/s-bahn-data/scripts/DeniseMA/processed/BBUP_W/Branching/BBUP_W_random3_subMBP202404072240.log"
Gurobi Optimizer version 10.0.1 build v10.0.1rc0 (mac64[arm])

CPU model: Apple M2
Thread count: 8 physical cores, 8 logical processors, using up to 8 threads

Optimize a model with 12175 rows, 5181 columns and 44780 nonzeros
Model fingerprint: 0x0a72bce6
Variable types: 2316 continuous, 2865 integer (59 binary)
Coefficient statistics:
  Matrix range     [1e+00, 2e+02]
  Objective range  [1e+00, 4e+02]
  Bounds range     [1e+00, 2e+02]
  RHS range        [1e+00, 5e+02]

Loaded user MIP start with objective 15083

Presolve removed 5823 rows and 1924 columns
Presolve time: 0.08s
Presolved: 6352 rows, 3257 columns, 24203 nonzeros
Variable types: 1050 continuous, 2207 integer (2207 binary)

Root relaxation: objective 1.269604e+04, 2334 iterations, 0.01 seconds (0.01 work units)

    Nodes    |    Current Node    |     Objective Bounds      |     Work
 Expl Unexpl |  Obj  Depth IntInf | Incumbent    BestBd   Gap | It/Node Time

     0     0 12696.0447    0  172 15083.0000 12696.0447  15.8%     -    0s
     0     0 12740.1860    0  437 15083.0000 12740.1860  15.5%     -    0s
     0     0 12740.1860    0  429 15083.0000 12740.1860  15.5%     -    0s
     0     0 12762.5818    0  455 15083.0000 12762.5818  15.4%     -    0s
     0     0 12762.5818    0  383 15083.0000 12762.5818  15.4%     -    0s
     0     0 12768.0000    0  428 15083.0000 12768.0000  15.3%     -    0s
     0     0 12768.0000    0  533 15083.0000 12768.0000  15.3%     -    0s
H    0     0                    15073.000000 12768.0000  15.3%     -    0s
H    0     0                    15072.000000 12768.0332  15.3%     -    0s
     0     0 12768.0332    0  567 15072.0000 12768.0332  15.3%     -    0s
     0     0 12768.0332    0  470 15072.0000 12768.0332  15.3%     -    0s
     0     0 12768.8380    0  485 15072.0000 12768.8380  15.3%     -    0s
     0     0 12768.8641    0  442 15072.0000 12768.8641  15.3%     -    0s
     0     0 12768.8641    0  407 15072.0000 12768.8641  15.3%     -    0s
     0     0 12768.8641    0  418 15072.0000 12768.8641  15.3%     -    0s
     0     0 12768.8641    0  417 15072.0000 12768.8641  15.3%     -    0s
     0     0 12768.8641    0  389 15072.0000 12768.8641  15.3%     -    0s
     0     0 12768.8641    0  408 15072.0000 12768.8641  15.3%     -    0s
H    0     0                    15067.000000 12768.8641  15.3%     -    0s
     0     0 12768.8641    0  136 15067.0000 12768.8641  15.3%     -    1s
     0     0 12768.8641    0  225 15067.0000 12768.8641  15.3%     -    1s
     0     0 12768.8641    0  154 15067.0000 12768.8641  15.3%     -    1s
     0     0 12768.8641    0  118 15067.0000 12768.8641  15.3%     -    1s
     0     0 12768.8641    0   55 15067.0000 12768.8641  15.3%     -    1s
     0     0 12768.8641    0  177 15067.0000 12768.8641  15.3%     -    1s
     0     0 12768.8641    0  174 15067.0000 12768.8641  15.3%     -    1s
     0     0 12768.8641    0  176 15067.0000 12768.8641  15.3%     -    1s
     0     0 12768.8641    0  257 15067.0000 12768.8641  15.3%     -    1s
     0     0 12768.8641    0  230 15067.0000 12768.8641  15.3%     -    1s
     0     0 12768.8641    0  249 15067.0000 12768.8641  15.3%     -    1s
     0     0 12768.8641    0  244 15067.0000 12768.8641  15.3%     -    1s
     0     0 12768.8641    0   66 15067.0000 12768.8641  15.3%     -    2s
     0     0 12768.8641    0  100 15067.0000 12768.8641  15.3%     -    2s
     0     0 12768.8641    0   94 15067.0000 12768.8641  15.3%     -    2s
     0     0 12768.8641    0  127 15067.0000 12768.8641  15.3%     -    2s
     0     0 12768.8641    0  105 15067.0000 12768.8641  15.3%     -    2s
     0     0 12768.8641    0   71 15067.0000 12768.8641  15.3%     -    2s
     0     2 12768.8641    0   71 15067.0000 12768.8641  15.3%     -    2s
H   34    40                    15047.000000 12778.0000  15.1%   183    2s
H  158   165                    15037.000000 12778.0000  15.0%  68.7    2s
H  168   181                    15025.000000 12778.0000  15.0%  66.5    2s
H  181   181                    15004.000000 12778.0000  14.8%  64.5    2s
H  329   329                    15003.999952 12778.0000  14.8%  46.8    3s
H  332   329                    15003.999903 12778.0000  14.8%  46.6    3s
H  334   329                    15003.998616 12778.0000  14.8%  46.5    3s
H  495   469                    15003.000000 12778.0000  14.8%  38.0    3s
H  499   469                    14996.000000 12778.0000  14.8%  38.0    3s
H 1564  1334                    14992.000000 12778.0000  14.8%  27.8    3s
  1582  1342 12864.0000    6  120 14992.0000 12778.0000  14.8%  27.6    5s
H 1765  1479                    14991.999972 12778.0000  14.8%  40.7    8s
H 1791  1406                    14991.999915 12778.0000  14.8%  40.7    8s
H 1805  1339                    14980.000000 12778.0000  14.7%  40.5    8s
H 1896  1330                    14979.999961 12778.0000  14.7%  39.8    8s
H 2004  1399                    14979.999921 12778.0000  14.7%  39.5    8s
H 2141  1311                    14972.000000 12778.0000  14.7%  38.2    8s
H 2254  1414                    14969.000000 12778.0000  14.6%  39.1    9s
H 2279  1358                    14965.000000 12778.0000  14.6%  38.9    9s
H 2487  1405                    14959.000000 12778.0000  14.6%  37.7    9s
H 2767  1574                    14956.000000 12778.0000  14.6%  37.6   10s
H 2828  1512                    14948.000000 12778.0000  14.5%  37.3   10s
H 4070  1938                    14946.000000 12778.0000  14.5%  33.8   10s
H 4167  2274                    14945.999936 12778.0000  14.5%  34.1   11s
H 4604  2324                    14940.000000 12778.0000  14.5%  34.4   11s
H 5743  3070                    14939.000000 12778.0000  14.5%  35.2   13s
H 5746  3070                    14933.999993 12778.0000  14.4%  35.2   13s
  7083  4561 13109.4639   44  256 14934.0000 12778.0000  14.4%  37.4   15s
H 7407  4561                    14933.000000 12778.0000  14.4%  37.3   15s
H 9202  5488                    14932.999978 12778.0000  14.4%  39.9   17s
H 9217  5488                    14932.999971 12778.0000  14.4%  39.9   17s
H 9217  5488                    14932.999884 12778.0000  14.4%  39.9   17s
 11430  7128 infeasible   78      14932.9999 12778.0000  14.4%  39.9   20s
 14626  9997 12812.0000   28  218 14932.9999 12778.0000  14.4%  42.0   25s
 18894 11890 13620.8650   44  173 14932.9999 12778.0000  14.4%  44.3   30s
H20347 12753                    14932.998595 12778.0000  14.4%  46.6   32s
 21317 14068 12926.1111   26  268 14932.9986 12778.0000  14.4%  48.1   35s
H21545 14068                    14932.998512 12778.0000  14.4%  48.1   35s
 25577 16113 13252.0000   31  195 14932.9985 12778.0000  14.4%  49.5   40s
 28761 18666 13847.1111   46  188 14932.9985 12778.0000  14.4%  51.1   46s
H29933 18666                    14932.998495 12778.0000  14.4%  51.2   46s
 30093 18667 12778.0000   35  118 14932.9985 12778.0000  14.4%  51.3   57s
 30104 18674 14674.0000   68  333 14932.9985 12778.0000  14.4%  51.3   60s
 30112 18683 12778.0000   23  135 14932.9985 12778.0000  14.4%  52.0   65s
H30685 18070                    14932.998445 12778.0000  14.4%  52.1   67s
 31886 18540 13235.5961   42  117 14932.9984 12778.0000  14.4%  51.9   70s
 34139 19252 14799.8542   65  122 14932.9984 12778.0000  14.4%  53.0   75s
H35421 18702                    14932.998443 12778.0000  14.4%  53.5   77s
 36109 19372 12790.0727   42  251 14932.9984 12778.0000  14.4%  54.3   80s
 38614 19579 infeasible   48      14932.9984 12778.0000  14.4%  56.1   85s
H38806 18672                    14932.997099 12778.0000  14.4%  56.6   85s
 41483 19607 13189.1890   39  302 14932.9971 12778.0000  14.4%  58.7   91s
 43231 19921 13857.8000   49  295 14932.9971 12778.0000  14.4%  59.9   95s
 45685 21346 14382.1831   53  197 14932.9971 12778.0000  14.4%  61.8  101s
 48074 21669 13605.9896   39  231 14932.9971 12778.0000  14.4%  63.5  106s
 50555 22580 13252.8761   41  281 14932.9971 12779.8509  14.4%  64.6  111s
 52060 22883 13766.1957   57  126 14932.9971 12788.0000  14.4%  65.6  116s
 55270 23667 13475.6583   42  312 14932.9971 12807.6875  14.2%  66.5  121s
 58004 24650 infeasible   61      14932.9971 12820.9477  14.1%  67.4  125s
 61371 25978 13372.0835   59  257 14932.9971 12848.0513  14.0%  68.2  130s
 66411 26904 infeasible   44      14932.9971 12894.0400  13.7%  68.6  135s
 71234 28024 13709.2088   46  270 14932.9971 12948.0000  13.3%  68.6  140s
 75734 28991 13768.7715   40  201 14932.9971 12989.0000  13.0%  68.5  145s
 81211 31503     cutoff   79      14932.9971 13041.4116  12.7%  69.0  150s
 85903 33716 infeasible   50      14932.9971 13113.2594  12.2%  68.8  155s
 89810 35843 14233.0196   58  136 14932.9971 13181.1890  11.7%  69.1  160s
 91498 38262 14647.0000   70   25 14932.9971 13181.1890  11.7%  69.9  166s
 94735 39148 13575.0632   39  313 14932.9971 13181.1890  11.7%  70.7  171s
 97570 40893 infeasible   43      14932.9971 13181.1890  11.7%  71.3  176s
 99047 42174 13519.0532   47  361 14932.9971 13181.1890  11.7%  72.2  180s

Cutting planes:
  Learned: 18
  Gomory: 195
  Cover: 944
  Implied bound: 150
  Projected implied bound: 20
  Clique: 107
  MIR: 198
  StrongCG: 128
  Flow cover: 900
  GUB cover: 12
  Inf proof: 11
  Zero half: 16
  Network: 29
  RLT: 57
  Relax-and-lift: 69

Explored 100519 nodes (7320136 simplex iterations) in 180.77 seconds (256.15 work units)
Thread count was 8 (of 8 available processors)

Solution count 10: 14933 14933 14933 ... 14933

Solve interrupted
Best objective 1.493299709877e+04, best bound 1.318118904824e+04, gap 11.7311%

User-callback calls 262721, time in user-callback 0.53 sec

Statistics for modelBBUP_W:
  Linear constraint matrix    : 12175 Constrs, 5181 Vars, 44780 NZs
  Variable types              : 2316 Continuous,
2865 Integer (59 Binary)
  Matrix coefficient range    : [ 1, 200 ]
  Objective coefficient range : [ 1, 384 ]
  Variable bound range        : [ 1, 199 ]
  RHS coefficient range       : [ 1, 549 ]

Gurobi 10.0.1 (mac64[arm]) logging started Mon Apr  8 03:49:37 2024

Set parameter LogFile to value "/Users/deniserings/Documents/zib/s-bahn-data/scripts/DeniseMA/processed/BBUP_W/Branching/BBUP_W_random3_subMBP202404072240.log"
Gurobi Optimizer version 10.0.1 build v10.0.1rc0 (mac64[arm])

CPU model: Apple M2
Thread count: 8 physical cores, 8 logical processors, using up to 8 threads

Optimize a model with 12169 rows, 5181 columns and 44774 nonzeros
Model fingerprint: 0x519bbc97
Variable types: 2316 continuous, 2865 integer (59 binary)
Coefficient statistics:
  Matrix range     [1e+00, 2e+02]
  Objective range  [1e+00, 4e+02]
  Bounds range     [1e+00, 2e+02]
  RHS range        [1e+00, 5e+02]

Loaded user MIP start with objective 15083

Presolve removed 5713 rows and 1861 columns
Presolve time: 0.08s
Presolved: 6456 rows, 3320 columns, 24545 nonzeros
Variable types: 1082 continuous, 2238 integer (2238 binary)

Root relaxation: objective 1.269604e+04, 2359 iterations, 0.01 seconds (0.01 work units)

    Nodes    |    Current Node    |     Objective Bounds      |     Work
 Expl Unexpl |  Obj  Depth IntInf | Incumbent    BestBd   Gap | It/Node Time

     0     0 12696.0447    0   77 15083.0000 12696.0447  15.8%     -    0s
     0     0 12696.0447    0  109 15083.0000 12696.0447  15.8%     -    0s
     0     0 12740.9554    0  324 15083.0000 12740.9554  15.5%     -    0s
     0     0 12742.0000    0  368 15083.0000 12742.0000  15.5%     -    0s
     0     0 12751.5550    0  506 15083.0000 12751.5550  15.5%     -    0s
     0     0 12751.9276    0  401 15083.0000 12751.9276  15.5%     -    0s
     0     0 12751.9276    0  396 15083.0000 12751.9276  15.5%     -    0s
     0     0 12754.1539    0  401 15083.0000 12754.1539  15.4%     -    0s
     0     0 12754.3947    0  404 15083.0000 12754.3947  15.4%     -    0s
     0     0 12754.3947    0  434 15083.0000 12754.3947  15.4%     -    0s
     0     0 12756.2290    0  447 15083.0000 12756.2290  15.4%     -    0s
     0     0 12756.2290    0  458 15083.0000 12756.2290  15.4%     -    0s
     0     0 12756.2290    0  435 15083.0000 12756.2290  15.4%     -    0s
     0     0 12756.2290    0  407 15083.0000 12756.2290  15.4%     -    0s
     0     0 12756.2290    0   99 15083.0000 12756.2290  15.4%     -    0s
     0     0 12756.2290    0  274 15083.0000 12756.2290  15.4%     -    0s
H    0     0                    15082.000000 12756.6048  15.4%     -    0s
     0     0 12756.6048    0  120 15082.0000 12756.6048  15.4%     -    0s
     0     0 12756.6048    0  105 15082.0000 12756.6048  15.4%     -    1s
     0     0 12756.6048    0  122 15082.0000 12756.6048  15.4%     -    1s
     0     0 12756.6048    0  223 15082.0000 12756.6048  15.4%     -    1s
     0     0 12756.6048    0  239 15082.0000 12756.6048  15.4%     -    1s
     0     0 12756.6048    0  256 15082.0000 12756.6048  15.4%     -    1s
     0     0 12759.6887    0  298 15082.0000 12759.6887  15.4%     -    1s
     0     0 12759.6887    0  257 15082.0000 12759.6887  15.4%     -    1s
     0     0 12759.6887    0  295 15082.0000 12759.6887  15.4%     -    1s
     0     0 12759.6887    0  275 15082.0000 12759.6887  15.4%     -    1s
     0     0 12759.8433    0  181 15082.0000 12759.8433  15.4%     -    1s
     0     0 12759.8433    0  238 15082.0000 12759.8433  15.4%     -    1s
     0     0 12759.9775    0  106 15082.0000 12759.9775  15.4%     -    2s
     0     0 12759.9775    0  116 15082.0000 12759.9775  15.4%     -    2s
     0     0 12759.9775    0  100 15082.0000 12759.9775  15.4%     -    2s
     0     0 12763.1488    0  171 15082.0000 12763.1488  15.4%     -    2s
     0     0 12763.1488    0   87 15082.0000 12763.1488  15.4%     -    2s
     0     0 12763.1488    0  138 15082.0000 12763.1488  15.4%     -    2s
H    0     0                    15081.999937 12763.1488  15.4%     -    2s
     0     0 12763.1488    0  111 15081.9999 12763.1488  15.4%     -    2s
     0     0 12763.1488    0   93 15081.9999 12763.1488  15.4%     -    2s
     0     2 12763.1488    0   93 15081.9999 12763.1488  15.4%     -    2s
H  321   282                    15081.000000 12768.0000  15.3%  54.2    3s
H  371   360                    15010.999956 12768.0000  14.9%  52.0    3s
H  713   642                    14997.000000 12768.0000  14.9%  39.6    3s
  1612  1124 12917.0000   10  297 14997.0000 12768.0115  14.9%  33.5    5s
H 1622  1074                    14996.999895 12778.0000  14.8%  33.3    6s
H 1802  1127                    14996.000000 12778.0000  14.8%  50.5    9s
H 1815  1082                    14995.999971 12778.0000  14.8%  50.6    9s
H 1816  1033                    14995.999927 12778.0000  14.8%  50.6    9s
H 1820   985                    14994.000000 12778.0000  14.8%  50.6    9s
H 1860   966                    14991.000000 12778.0000  14.8%  50.7    9s
  1915  1021 12897.0000   34  195 14991.0000 12778.0000  14.8%  50.9   10s
H 1916   978                    14988.000000 12778.0000  14.7%  50.8   10s
H 1940   930                    14981.000000 12778.0000  14.7%  50.5   10s
H 2032   937                    14969.000000 12778.0000  14.6%  50.5   10s
H 2042   898                    14957.000000 12778.0000  14.6%  50.5   10s
H 3163  1304                    14954.000000 12778.0000  14.6%  44.2   12s
H 3164  1272                    14947.000000 12778.0000  14.5%  44.2   12s
H 3172  1238                    14946.000000 12778.0000  14.5%  44.2   12s
H 3174  1207                    14942.000000 12778.0000  14.5%  44.3   12s
H 3330  1258                    14938.000000 12778.0000  14.5%  44.2   12s
H 3331  1258                    14937.000000 12778.0000  14.5%  44.2   12s
H 3937  1718                    14935.000000 12778.0000  14.4%  46.0   13s
H 4086  2007                    14933.000000 12778.0000  14.4%  46.1   14s
  4876  2448 infeasible   38      14933.0000 12778.0000  14.4%  45.7   15s
H 6835  3775                    14932.999951 12778.0000  14.4%  50.0   19s
  7086  4191 13692.0000   31  238 14933.0000 12778.0000  14.4%  51.4   20s
H 7351  4191                    14932.999934 12778.0000  14.4%  50.8   20s
 10956  6801 13102.0000   50  214 14932.9999 12778.0000  14.4%  53.7   25s
 13167  8275 12812.0909   36  251 14932.9999 12778.0000  14.4%  54.0   30s
 17356 10826 infeasible   39      14932.9999 12778.0000  14.4%  56.0   36s
 18871 11753 12785.0000   35  216 14932.9999 12778.0000  14.4%  58.7   40s
 22797 13660 12963.9192   29  319 14932.9999 12778.0000  14.4%  59.7   47s
 23851 14946 infeasible   68      14932.9999 12778.0000  14.4%  60.7   51s
 25779 16552 13735.0090   48  184 14932.9999 12778.0000  14.4%  62.1   56s
 28212 17757 12778.8690   30  324 14932.9999 12778.0000  14.4%  62.8   60s
 31058 18856 12906.0000   39  105 14932.9999 12778.0000  14.4%  63.2   74s
 31063 18859 13480.0000   72  314 14932.9999 12778.0000  14.4%  63.2   75s
 31072 18865 12970.3289   30  227 14932.9999 12778.0000  14.4%  63.1   80s
H31072 17921                    14932.999927 12778.0000  14.4%  63.1   81s
 31150 17965 12778.0000   34  165 14932.9999 12778.0000  14.4%  64.3   85s
H31715 17372                    14932.999922 12778.0000  14.4%  64.6   88s
H31740 16513                    14932.999892 12778.0000  14.4%  64.6   88s
 32206 16763 13316.0000   52  124 14932.9999 12778.0000  14.4%  64.4   90s
 33397 17187 13394.8853   59  289 14932.9999 12778.0000  14.4%  65.6   95s
 34948 17790 13196.0000   46  241 14932.9999 12778.0000  14.4%  66.9  100s
 36525 18539 12778.0000   40  328 14932.9999 12778.0000  14.4%  68.4  105s
H38234 17826                    14932.999870 12778.0000  14.4%  70.1  109s
 38353 18120 14146.3313   65  108 14932.9999 12778.0000  14.4%  70.7  110s
H38632 17259                    14932.999861 12778.0000  14.4%  71.0  110s
 40105 17894 13551.5873   42  281 14932.9999 12778.0000  14.4%  72.5  115s
 41890 18418 12859.5625   37  388 14932.9999 12778.0000  14.4%  74.6  121s
 43030 19279 13049.0000   49  302 14932.9999 12778.0000  14.4%  76.3  125s
H44835 18388                    14932.999850 12778.0000  14.4%  77.0  127s
 44970 18754 13111.6679   61  257 14932.9998 12778.0000  14.4%  77.4  130s
 46515 19577 12825.9416   45  306 14932.9998 12778.0000  14.4%  79.3  135s
 48606 20000 infeasible   49      14932.9998 12778.0000  14.4%  80.5  140s
 50396 20555 12932.8416   47  324 14932.9998 12778.0000  14.4%  81.5  146s
 52243 21982 12835.6380   46  362 14932.9998 12778.0000  14.4%  82.8  151s
 54945 22025 12890.6726   53  278 14932.9998 12778.7970  14.4%  83.3  156s
 56522 23190 13973.9731   56  174 14932.9998 12779.3028  14.4%  84.2  161s
 59357 23008 13246.4786   50  198 14932.9998 12780.9416  14.4%  84.3  166s
 60733 23922 13558.6116   51  289 14932.9998 12780.9416  14.4%  84.8  172s
 61503 24684 12827.7312   40  312 14932.9998 12780.9416  14.4%  85.3  177s
 63047 24842 12966.3408   46  213 14932.9998 12780.9416  14.4%  86.1  180s

Cutting planes:
  Learned: 43
  Gomory: 214
  Cover: 1195
  Implied bound: 187
  Projected implied bound: 13
  Clique: 138
  MIR: 295
  StrongCG: 136
  Flow cover: 1253
  GUB cover: 9
  Inf proof: 12
  Zero half: 14
  Network: 39
  RLT: 60
  Relax-and-lift: 77

Explored 64091 nodes (5587553 simplex iterations) in 180.70 seconds (262.65 work units)
Thread count was 8 (of 8 available processors)

Solution count 10: 14933 14933 14933 ... 14935

Solve interrupted
Best objective 1.493299984975e+04, best bound 1.278094161123e+04, gap 14.4114%

User-callback calls 198021, time in user-callback 0.43 sec

Statistics for modelBBUP_W:
  Linear constraint matrix    : 12169 Constrs, 5181 Vars, 44774 NZs
  Variable types              : 2316 Continuous,
2865 Integer (59 Binary)
  Matrix coefficient range    : [ 1, 200 ]
  Objective coefficient range : [ 1, 384 ]
  Variable bound range        : [ 1, 199 ]
  RHS coefficient range       : [ 1, 549 ]

Gurobi 10.0.1 (mac64[arm]) logging started Mon Apr  8 03:52:37 2024

Set parameter LogFile to value "/Users/deniserings/Documents/zib/s-bahn-data/scripts/DeniseMA/processed/BBUP_W/Branching/BBUP_W_random3_subMBP202404072240.log"
Gurobi Optimizer version 10.0.1 build v10.0.1rc0 (mac64[arm])

CPU model: Apple M2
Thread count: 8 physical cores, 8 logical processors, using up to 8 threads

Optimize a model with 12166 rows, 5181 columns and 44771 nonzeros
Model fingerprint: 0xafc642f8
Variable types: 2316 continuous, 2865 integer (59 binary)
Coefficient statistics:
  Matrix range     [1e+00, 2e+02]
  Objective range  [1e+00, 4e+02]
  Bounds range     [1e+00, 2e+02]
  RHS range        [1e+00, 5e+02]

Loaded user MIP start with objective 15083

Presolve removed 5619 rows and 1803 columns
Presolve time: 0.09s
Presolved: 6547 rows, 3378 columns, 25052 nonzeros
Variable types: 1103 continuous, 2275 integer (2275 binary)

Root relaxation: objective 1.269604e+04, 2363 iterations, 0.01 seconds (0.01 work units)

    Nodes    |    Current Node    |     Objective Bounds      |     Work
 Expl Unexpl |  Obj  Depth IntInf | Incumbent    BestBd   Gap | It/Node Time

     0     0 12696.0447    0  126 15083.0000 12696.0447  15.8%     -    0s
     0     0 12740.1860    0  317 15083.0000 12740.1860  15.5%     -    0s
     0     0 12742.0000    0  343 15083.0000 12742.0000  15.5%     -    0s
     0     0 12762.0957    0  385 15083.0000 12762.0957  15.4%     -    0s
     0     0 12762.0957    0  356 15083.0000 12762.0957  15.4%     -    0s
     0     0 12768.0000    0  425 15083.0000 12768.0000  15.3%     -    0s
     0     0 12768.0000    0  405 15083.0000 12768.0000  15.3%     -    0s
     0     0 12768.0000    0  348 15083.0000 12768.0000  15.3%     -    0s
     0     0 12768.0000    0  366 15083.0000 12768.0000  15.3%     -    0s
     0     0 12768.2092    0   94 15083.0000 12768.2092  15.3%     -    0s
     0     0 12768.2092    0  158 15083.0000 12768.2092  15.3%     -    0s
     0     0 12768.8380    0  273 15083.0000 12768.8380  15.3%     -    0s
H    0     0                    15082.999961 12768.8641  15.3%     -    0s
     0     0 12768.8641    0  314 15083.0000 12768.8641  15.3%     -    0s
     0     0 12768.8641    0  320 15083.0000 12768.8641  15.3%     -    0s
     0     0 12768.8641    0  326 15083.0000 12768.8641  15.3%     -    0s
     0     0 12768.8641    0  338 15083.0000 12768.8641  15.3%     -    1s
     0     0 12768.8641    0  329 15083.0000 12768.8641  15.3%     -    1s
     0     0 12768.8641    0   92 15083.0000 12768.8641  15.3%     -    1s
     0     0 12768.8641    0  115 15083.0000 12768.8641  15.3%     -    1s
     0     0 12768.8641    0  247 15083.0000 12768.8641  15.3%     -    1s
     0     0 12768.8641    0  257 15083.0000 12768.8641  15.3%     -    1s
     0     0 12768.8641    0  244 15083.0000 12768.8641  15.3%     -    1s
     0     0 12768.8641    0  314 15083.0000 12768.8641  15.3%     -    1s
     0     0 12768.8641    0  306 15083.0000 12768.8641  15.3%     -    1s
     0     0 12768.8641    0  378 15083.0000 12768.8641  15.3%     -    1s
     0     0 12768.8641    0  353 15083.0000 12768.8641  15.3%     -    1s
     0     0 12768.8641    0  122 15083.0000 12768.8641  15.3%     -    1s
     0     0 12768.8641    0  138 15083.0000 12768.8641  15.3%     -    1s
     0     0 12768.8641    0  166 15083.0000 12768.8641  15.3%     -    2s
     0     0 12768.8641    0  201 15083.0000 12768.8641  15.3%     -    2s
     0     0 12768.8641    0  140 15083.0000 12768.8641  15.3%     -    2s
     0     0 12768.8641    0  112 15083.0000 12768.8641  15.3%     -    2s
     0     2 12768.8641    0  102 15083.0000 12768.8641  15.3%     -    2s
H   35    40                    15081.000000 12778.0000  15.3%   224    2s
H  113   120                    15076.000000 12778.0000  15.2%  95.0    2s
H  151   157                    15075.999985 12778.0000  15.2%  78.9    2s
H  153   157                    15075.999941 12778.0000  15.2%  78.5    2s
H  154   157                    15075.000000 12778.0000  15.2%  78.1    2s
H  162   167                    15074.000000 12778.0000  15.2%  75.4    2s
H  220   210                    15071.000000 12778.0000  15.2%  62.3    2s
H  344   322                    15063.000000 12778.0000  15.2%  53.1    3s
H  346   322                    15062.000000 12778.0000  15.2%  53.0    3s
H  347   322                    14996.000000 12778.0000  14.8%  53.0    3s
H  448   392                    14995.999971 12778.0000  14.8%  46.9    3s
H  450   392                    14995.999964 12778.0000  14.8%  47.2    3s
H  457   392                    14995.999945 12778.0000  14.8%  47.4    3s
  1592  1232 13492.0000   97  305 14995.9999 12778.0000  14.8%  32.3    5s
H 1595  1172                    14993.000000 12778.0000  14.8%  32.2    5s
H 1751  1212                    14992.999972 12778.0000  14.8%  41.3    6s
H 1753  1155                    14992.999946 12778.0000  14.8%  41.3    6s
H 1785  1121                    14992.999864 12778.0000  14.8%  41.0    7s
H 1805  1086                    14983.000000 12778.0000  14.7%  40.9    7s
H 2051  1131                    14978.000000 12778.0000  14.7%  42.6    8s
H 2063  1087                    14977.999898 12778.0000  14.7%  42.6    8s
H 2065  1043                    14970.000000 12778.0000  14.6%  42.6    8s
H 3109  1432                    14945.000000 12778.0000  14.5%  38.1   10s
H 3525  1609                    14942.999980 12778.0000  14.5%  38.6   11s
H 4832  2381                    14942.000000 12778.0000  14.5%  37.7   13s
H 4833  2381                    14936.000000 12778.0000  14.4%  37.7   13s
  6383  4045 13137.0000   35  222 14936.0000 12778.0000  14.4%  38.1   15s
H 7574  4148                    14935.999980 12778.0000  14.4%  38.4   16s
H 7579  4148                    14935.999928 12778.0000  14.4%  38.4   16s
H 9354  5590                    14935.000000 12778.0000  14.4%  38.3   18s
 10087  6887 13192.0247   49  164 14935.0000 12778.0000  14.4%  39.9   20s
 14501  8885 infeasible   43      14935.0000 12778.0000  14.4%  41.1   26s
H14771 10942                    14934.999957 12778.0000  14.4%  42.0   30s
H15479 10942                    14934.999850 12778.0000  14.4%  42.6   30s
H18315 12441                    14934.999840 12778.0000  14.4%  43.5   32s
 23054 14775 infeasible   59      14934.9998 12778.0000  14.4%  42.1   35s
H23817 14895                    14933.000000 12778.0000  14.4%  43.1   37s
 24819 16198 14689.0266   66   58 14933.0000 12778.0000  14.4%  43.7   40s
H24978 16198                    14932.999932 12778.0000  14.4%  43.7   40s
H27846 18290                    14932.999924 12778.0000  14.4%  45.2   44s
 29279 18291 14164.0000   82   92 14932.9999 12778.0000  14.4%  45.3   54s
 29287 18296 12808.6087   31  425 14932.9999 12778.0000  14.4%  45.3   55s
 29296 18302 13183.6200   71  184 14932.9999 12778.0000  14.4%  45.3   60s
H29299 17388                    14932.999905 12778.0000  14.4%  45.2   63s
 29302 17390 12988.0000   50  112 14932.9999 12778.0000  14.4%  45.2   65s
H29411 16589                    14932.998736 12778.0000  14.4%  46.7   68s
H29487 15793                    14932.998715 12778.0000  14.4%  46.8   69s
 29627 15860 12900.0000   47  191 14932.9987 12778.0000  14.4%  46.9   70s
H30116 15219                    14932.998701 12778.0000  14.4%  47.3   72s
 30832 15572 12913.9499   31  298 14932.9987 12778.0000  14.4%  47.9   75s
 32797 16396 13852.0058   60   82 14932.9987 12778.0000  14.4%  49.2   80s
 36173 17668 13900.9446   51  229 14932.9987 12778.0000  14.4%  51.1   85s
 39378 18540 13756.6307   47  190 14932.9987 12778.0000  14.4%  52.7   90s
H39457 17767                    14932.998674 12778.0000  14.4%  52.7   90s
 41432 18426 12864.1756   53  324 14932.9987 12778.0000  14.4%  54.3   96s
 43842 19374 12947.0000   44  245 14932.9987 12778.0000  14.4%  55.9  100s
H44395 18480                    14932.997529 12778.0000  14.4%  56.4  100s
 45612 20228 12934.0000   43  218 14932.9975 12778.0000  14.4%  57.8  106s
 48590 20053 13763.4349   59  171 14932.9975 12778.0000  14.4%  59.6  110s
 50274 20773 14123.2257   52  172 14932.9975 12778.0000  14.4%  61.0  115s
 51955 21471 12817.8813   43  320 14932.9975 12778.0000  14.4%  62.6  120s
 54351 21888 13117.3086   45  227 14932.9975 12778.0000  14.4%  64.0  125s
 56310 22651 14428.4859   67  166 14932.9975 12778.0000  14.4%  65.6  130s
 58574 22587 13256.0674   50  249 14932.9975 12778.0000  14.4%  67.1  135s
 58637 27814 14741.3214   59  112 14932.9975 12778.0000  14.4%  67.2  152s
 66645 25450 13488.1491   62  156 14932.9975 12778.0000  14.4%  71.4  155s
 68894 26428 12983.8253   47  259 14932.9975 12778.0000  14.4%  71.8  160s
 70983 27432 13612.6639   49  279 14932.9975 12778.0000  14.4%  72.5  166s
 73027 28647 infeasible   44      14932.9975 12778.0000  14.4%  73.2  170s
 75966 30072 13474.0000   55  169 14932.9975 12778.0000  14.4%  73.3  175s
 78282 31701 13084.0195   55  309 14932.9975 12778.0000  14.4%  73.9  181s

Cutting planes:
  Learned: 31
  Gomory: 241
  Cover: 1270
  Implied bound: 215
  Projected implied bound: 18
  Clique: 124
  MIR: 289
  StrongCG: 119
  Flow cover: 1415
  GUB cover: 11
  Inf proof: 19
  Zero half: 25
  Network: 29
  RLT: 52
  Relax-and-lift: 121

Explored 79503 nodes (5892157 simplex iterations) in 181.71 seconds (254.16 work units)
Thread count was 8 (of 8 available processors)

Solution count 10: 14933 14933 14933 ... 14935

Solve interrupted
Best objective 1.493299752903e+04, best bound 1.277800000000e+04, gap 14.4311%

User-callback calls 228043, time in user-callback 0.48 sec

Statistics for modelBBUP_W:
  Linear constraint matrix    : 12166 Constrs, 5181 Vars, 44771 NZs
  Variable types              : 2316 Continuous,
2865 Integer (59 Binary)
  Matrix coefficient range    : [ 1, 200 ]
  Objective coefficient range : [ 1, 384 ]
  Variable bound range        : [ 1, 199 ]
  RHS coefficient range       : [ 1, 549 ]

Gurobi 10.0.1 (mac64[arm]) logging started Mon Apr  8 03:55:39 2024

Set parameter LogFile to value "/Users/deniserings/Documents/zib/s-bahn-data/scripts/DeniseMA/processed/BBUP_W/Branching/BBUP_W_random3_subMBP202404072240.log"
Gurobi Optimizer version 10.0.1 build v10.0.1rc0 (mac64[arm])

CPU model: Apple M2
Thread count: 8 physical cores, 8 logical processors, using up to 8 threads

Optimize a model with 12164 rows, 5181 columns and 44769 nonzeros
Model fingerprint: 0x9bda5c3c
Variable types: 2316 continuous, 2865 integer (59 binary)
Coefficient statistics:
  Matrix range     [1e+00, 2e+02]
  Objective range  [1e+00, 4e+02]
  Bounds range     [1e+00, 2e+02]
  RHS range        [1e+00, 5e+02]

Loaded user MIP start with objective 15083

Presolve removed 5494 rows and 1712 columns
Presolve time: 0.09s
Presolved: 6670 rows, 3469 columns, 25497 nonzeros
Variable types: 1125 continuous, 2344 integer (2344 binary)

Root relaxation: objective 1.268804e+04, 2576 iterations, 0.01 seconds (0.01 work units)

    Nodes    |    Current Node    |     Objective Bounds      |     Work
 Expl Unexpl |  Obj  Depth IntInf | Incumbent    BestBd   Gap | It/Node Time

     0     0 12688.0447    0   98 15083.0000 12688.0447  15.9%     -    0s
     0     0 12732.5232    0  292 15083.0000 12732.5232  15.6%     -    0s
     0     0 12734.0000    0  296 15083.0000 12734.0000  15.6%     -    0s
     0     0 12744.1789    0  353 15083.0000 12744.1789  15.5%     -    0s
     0     0 12744.6803    0  375 15083.0000 12744.6803  15.5%     -    0s
     0     0 12744.6803    0  438 15083.0000 12744.6803  15.5%     -    0s
     0     0 12744.6803    0  366 15083.0000 12744.6803  15.5%     -    0s
     0     0 12744.6803    0  495 15083.0000 12744.6803  15.5%     -    0s
     0     0 12744.6803    0  446 15083.0000 12744.6803  15.5%     -    0s
     0     0 12744.6803    0  458 15083.0000 12744.6803  15.5%     -    0s
     0     0 12744.6803    0  114 15083.0000 12744.6803  15.5%     -    0s
     0     2 12744.6803    0  114 15083.0000 12744.6803  15.5%     -    0s
H   31    40                    15039.000000 12767.9931  15.1%   251    0s
H  193   159                    15033.000000 12768.0000  15.1%  87.7    1s
H  508   392                    15024.000000 12768.0000  15.0%  55.1    1s
H  905   633                    15019.000000 12768.0000  15.0%  45.1    1s
H  906   633                    15018.999979 12768.0000  15.0%  45.1    1s
H 1550  1126                    14985.000000 12768.0000  14.8%  37.9    2s
H 1795  1216                    14984.999952 12778.0000  14.7%  48.9    5s
H 2002  1247                    14981.000000 12778.0000  14.7%  48.7    5s
H 2021  1188                    14967.000000 12778.0000  14.6%  48.4    5s
H 2048  1193                    14961.000000 12778.0000  14.6%  48.3    6s
H 2093  1132                    14960.000000 12778.0000  14.6%  48.4    6s
H 3186  1562                    14958.999961 12778.0000  14.6%  39.9    7s
H 3201  1515                    14958.000000 12778.0000  14.6%  39.9    7s
H 3577  1735                    14957.000000 12778.0000  14.6%  39.9    7s
* 4018  1988             181    14954.000000 12778.0000  14.6%  38.0    8s
H 5269  2813                    14949.000000 12778.0000  14.5%  34.6    8s
H 6335  3407                    14945.000000 12778.0000  14.5%  33.7   10s
H 6339  3407                    14940.000000 12778.0000  14.5%  33.7   10s
H 9973  6109                    14938.999961 12778.0000  14.5%  33.1   14s
 10996  7257 12778.0000   29  275 14939.0000 12778.0000  14.5%  33.8   15s
H14026  8300                    14938.000000 12778.0000  14.5%  34.9   17s
 16598 10006 12882.0000   27  214 14938.0000 12778.0000  14.5%  36.2   20s
H19555 12112                    14937.999957 12778.0000  14.5%  37.6   25s
H19574 12112                    14933.000000 12778.0000  14.4%  37.6   25s
 24089 15400 infeasible   26      14933.0000 12778.0000  14.4%  39.0   30s
 26684 16631 12928.0000   32  219 14933.0000 12778.0000  14.4%  40.3   35s
H26706 16631                    14932.999980 12778.0000  14.4%  40.3   35s
H28508 18197                    14932.999978 12778.0000  14.4%  41.6   38s
 30836 19314 12928.2114   38  114 14933.0000 12778.0000  14.4%  42.1   49s
 30843 19319 13292.0000   80  156 14933.0000 12778.0000  14.4%  42.1   50s
 30852 19325 14835.0000  127  210 14933.0000 12778.0000  14.4%  42.1   55s
H30854 18359                    14932.999970 12778.0000  14.4%  42.1   57s
H30854 17441                    14932.999934 12778.0000  14.4%  42.1   57s
H30857 16570                    14932.999854 12778.0000  14.4%  42.1   59s
 30860 16572 14538.0000   77  190 14932.9999 12778.0000  14.4%  42.1   60s
 32029 17177 14600.1703   95   63 14932.9999 12778.0000  14.4%  44.4   65s
H32082 16331                    14932.999670 12778.0000  14.4%  44.4   65s
H32085 15543                    14932.999635 12778.0000  14.4%  44.4   65s
H32731 15147                    14932.999614 12778.0000  14.4%  45.0   68s
H33279 14597                    14932.999575 12778.0000  14.4%  45.2   69s
 33429 14787 12778.0000   30  235 14932.9996 12778.0000  14.4%  45.3   70s
H34902 14740                    14932.999560 12778.0000  14.4%  46.7   74s
 35296 14977 12816.0000   34  254 14932.9996 12778.0000  14.4%  47.0   75s
 37532 15549 13203.0000   34  326 14932.9996 12778.0000  14.4%  49.4   80s
 39361 16385 12888.5000   46  330 14932.9996 12778.0000  14.4%  52.1   85s
H40892 16014                    14932.998494 12778.0000  14.4%  53.3   87s
 42110 16375 12925.5000   41  409 14932.9985 12778.0000  14.4%  54.8   91s
H42986 15866                    14932.996209 12778.0000  14.4%  56.0   93s
 43187 16242 13108.2588   42  395 14932.9962 12778.0000  14.4%  56.3   95s
 46292 17281 12999.3333   47  213 14932.9962 12778.0000  14.4%  58.5  101s
 48277 17998 12993.1898   36  286 14932.9962 12778.0000  14.4%  60.7  106s
 50969 18592 12804.0000   38  361 14932.9962 12778.0000  14.4%  62.6  111s
 52753 19237 12803.0508   36  271 14932.9962 12778.0000  14.4%  64.6  117s
 53760 19413 14886.8933   60   70 14932.9962 12778.0000  14.4%  65.5  120s
 55683 20020 12881.6295   44  336 14932.9962 12778.0000  14.4%  67.3  126s
 56786 20660 12781.5791   39  260 14932.9962 12778.0000  14.4%  68.6  132s
 58052 20906 13027.1434   39  289 14932.9962 12778.0000  14.4%  69.4  136s
 60323 21933 12944.9972   45  386 14932.9962 12778.0000  14.4%  71.3  142s
 61593 21925 12868.0000   40  352 14932.9962 12778.0000  14.4%  72.0  145s
 62275 22841 13075.8366   40  332 14932.9962 12778.0000  14.4%  72.6  150s
 65874 23552 14191.7540   73  157 14932.9962 12778.0000  14.4%  74.5  157s
 66946 24374 12979.5319   46  346 14932.9962 12778.0000  14.4%  75.2  160s
 69112 25553 13588.8844   68   79 14932.9962 12778.0000  14.4%  76.4  166s
 70378 26289 12778.0000   37  318 14932.9962 12778.0000  14.4%  77.5  170s
 72570 27731 12778.3087   35  370 14932.9962 12778.0000  14.4%  78.7  176s
 74586 29795 13556.2683   37  329 14932.9962 12778.0000  14.4%  79.7  183s

Cutting planes:
  Learned: 30
  Gomory: 301
  Cover: 1157
  Implied bound: 200
  Projected implied bound: 9
  Clique: 99
  MIR: 225
  StrongCG: 97
  Flow cover: 1070
  GUB cover: 10
  Inf proof: 25
  Zero half: 7
  Network: 32
  RLT: 52
  Relax-and-lift: 100

Explored 76724 nodes (6124332 simplex iterations) in 183.45 seconds (265.95 work units)
Thread count was 8 (of 8 available processors)

Solution count 10: 14933 14933 14933 ... 14933

Solve interrupted
Best objective 1.493299620938e+04, best bound 1.277800000000e+04, gap 14.4311%

User-callback calls 222974, time in user-callback 0.47 sec

Statistics for modelBBUP_W:
  Linear constraint matrix    : 12164 Constrs, 5181 Vars, 44769 NZs
  Variable types              : 2316 Continuous,
2865 Integer (59 Binary)
  Matrix coefficient range    : [ 1, 200 ]
  Objective coefficient range : [ 1, 384 ]
  Variable bound range        : [ 1, 199 ]
  RHS coefficient range       : [ 1, 549 ]
